# Solution for model GasLib-40
# Objective value = 6.0784274309673492e+01
loadshed[innode_1] 0
loadshed[innode_2] 0
loadshed[innode_3] 0
loadshed[innode_4] 0
loadshed[innode_5] 0
loadshed[innode_6] 0
loadshed[innode_7] 0
loadshed[innode_8] 0
loadshed[source_1] -0.0239836490127181
loadshed[source_2] 1.2914178564089995e-01
loadshed[source_3] 2.7933277049206418e-01
loadshed[sink_1] 7.5290396936396320e-01
loadshed[sink_2] 0
loadshed[sink_3] 0
loadshed[sink_4] 0
loadshed[sink_5] 0
loadshed[sink_6] 0
loadshed[sink_7] 0
loadshed[sink_8] 0
loadshed[sink_9] 0
loadshed[sink_10] 0
loadshed[sink_11] 0
loadshed[sink_12] 1
loadshed[sink_13] 0
loadshed[sink_14] 0
loadshed[sink_15] 0
loadshed[sink_16] 0
loadshed[sink_17] 0
loadshed[sink_18] 0
loadshed[sink_19] 0
loadshed[sink_20] 0
loadshed[sink_21] 1
loadshed[sink_22] 0
loadshed[sink_23] 0
loadshed[sink_24] 9.6384146613199562e-01
loadshed[sink_25] 0
loadshed[sink_26] 0
loadshed[sink_27] 0
loadshed[sink_28] 0
loadshed[sink_29] 0
flow[source_1,sink_3] 1.6188185951232310e+02
flow[innode_1,sink_16] 1.6354166666666970e+01
flow[innode_6,sink_13] 5.4868416841480894e-01
flow[sink_13,sink_14] -1.5805482498251859e+01
flow[sink_14,sink_10] -3.2159649164918562e+01
flow[sink_25,sink_26] 0
flow[sink_26,sink_9] 8.6403225690326536e+01
flow[sink_9,sink_18] 7.0049059023659865e+01
flow[sink_26,sink_4] -1.0275739235699318e+02
flow[sink_4,sink_20] -1.0045656699318624e+02
flow[sink_18,sink_6] 5.3694892356993194e+01
flow[sink_25,innode_8] -1.2917352617898678e+02
flow[sink_6,sink_7] 1.6945509355966323e+01
flow[sink_6,sink_22] 2.0395216334360185e+01
flow[sink_7,sink_24] 5.9134268929965472e-01
flow[sink_22,sink_1] 4.0410496676935184e+00
flow[sink_24,sink_21] 0
flow[sink_21,sink_12] 0
flow[sink_7,sink_5] 0
flow[sink_5,sink_17] -1.6354166666667197e+01
flow[sink_17,sink_4] 1.8654992030473522e+01
flow[sink_17,sink_8] -5.1363325363807348e+01
flow[sink_3,sink_23] 16.3541666666697
flow[sink_8,sink_20] -6.7717492030473977e+01
flow[sink_25,sink_20] 1.8452822569032693e+02
flow[sink_25,sink_15] -7.2257550346421908e+01
flow[sink_15,sink_29] -5.0925188922414748e+01
flow[sink_29,sink_28] 1.6354166666667879e+01
flow[sink_29,sink_2] 5.4040694757340475e+01
flow[sink_2,sink_15] 3.7686528090673846e+01
flow[sink_29,innode_7] -1.3767421701308967e+02
flow[innode_4,sink_19] 4.3945706260652173e+01
flow[sink_19,innode_3] 3.9636065953975162e+01
flow[innode_4,innode_5] 6.9984776237598908e+01
flow[sink_27,innode_5] -6.9984776237598908e+01
flow[sink_27,sink_19] 5.3630609570932165e+01
flow[sink_10,sink_11] 3.2708333333333641e+01
flow[sink_10,innode_2] -4.1586083210943684e+01
flow[sink_10,innode_3] -3.9636065953975162e+01
flow[innode_6,sink_25] -5.4868416841480894e-01
flow[sink_11,innode_1] 1.6354166666666970e+01
flow[sink_19,innode_2] 4.1586083210943684e+01
flow[source_3,innode_4] 1.1393048249825111e+02
flow[source_2,innode_7] 1.3767421701308967e+02
flow[sink_3,innode_8] 1.2917352617898678e+02
pressure[innode_1] 7.6883199903632416e+01
pressure[innode_2] 7.9232897465083227e+01
pressure[innode_3] 7.9145127885325721e+01
pressure[innode_4] 81.01325
pressure[innode_5] 80.9651107805951
pressure[innode_6] 7.5488534509444776e+01
pressure[innode_7] 81.01325
pressure[innode_8] 8.0472140784762132e+01
pressure[source_1] 81.01325
pressure[source_2] 81.01325
pressure[source_3] 81.01325
pressure[sink_1] 1.0132500000000002e+00
pressure[sink_2] 7.5962092246198722e+01
pressure[sink_3] 8.0472140784762132e+01
pressure[sink_4] 2.4127608873742364e+01
pressure[sink_5] 2.3622273950857540e+01
pressure[sink_6] 1.9229147691031678e+00
pressure[sink_7] 1.6902933176266757e+00
pressure[sink_8] 2.6778612860826733e+01
pressure[sink_9] 5.8913120033175144e+00
pressure[sink_10] 7.7034901211235962e+01
pressure[sink_11] 7.6883199903632416e+01
pressure[sink_12] 1.0132499999999980e+00
pressure[sink_13] 7.5485509705317952e+01
pressure[sink_14] 7.5513794962577990e+01
pressure[sink_15] 7.5839054037959684e+01
pressure[sink_16] 7.5861550068814736e+01
pressure[sink_17] 2.4840541156212289e+01
pressure[sink_18] 3.3567282657391120e+00
pressure[sink_19] 7.9232897465083227e+01
pressure[sink_20] 3.1497569725906089e+01
pressure[sink_21] 1.0132499999999980e+00
pressure[sink_22] 1.2761031325890195e+00
pressure[sink_23] 8.0307422773102346e+01
pressure[sink_24] 1.0132499999999980e+00
pressure[sink_25] 7.5488534509444776e+01
pressure[sink_26] 1.1062768061470450e+01
pressure[sink_27] 8.0384366455784729e+01
pressure[sink_28] 7.7035721759408176e+01
pressure[sink_29] 7.7331004033025351e+01
interdiction[source_1,sink_3] 0
interdiction[innode_1,sink_16] 0
interdiction[innode_6,sink_13] 0
interdiction[sink_13,sink_14] 0
interdiction[sink_14,sink_10] 0
interdiction[sink_25,sink_26] 1
interdiction[sink_26,sink_9] 0
interdiction[sink_9,sink_18] 0
interdiction[sink_26,sink_4] 0
interdiction[sink_4,sink_20] 0
interdiction[sink_18,sink_6] 0
interdiction[sink_25,innode_8] 0
interdiction[sink_6,sink_7] 0
interdiction[sink_6,sink_22] 0
interdiction[sink_7,sink_24] 0
interdiction[sink_22,sink_1] 0
interdiction[sink_24,sink_21] 0
interdiction[sink_21,sink_12] 0
interdiction[sink_7,sink_5] 1
interdiction[sink_5,sink_17] 0
interdiction[sink_17,sink_4] 0
interdiction[sink_17,sink_8] 0
interdiction[sink_3,sink_23] 0
interdiction[sink_8,sink_20] 0
interdiction[sink_25,sink_20] 0
interdiction[sink_25,sink_15] 0
interdiction[sink_15,sink_29] 0
interdiction[sink_29,sink_28] 0
interdiction[sink_29,sink_2] 0
interdiction[sink_2,sink_15] 0
interdiction[sink_29,innode_7] 0
interdiction[innode_4,sink_19] 0
interdiction[sink_19,innode_3] 0
interdiction[innode_4,innode_5] 0
interdiction[sink_27,innode_5] 0
interdiction[sink_27,sink_19] 0
interdiction[sink_10,sink_11] 0
interdiction[sink_10,innode_2] 0
interdiction[sink_10,innode_3] 0
interdiction[innode_6,sink_25] 0
interdiction[sink_11,innode_1] 0
interdiction[sink_19,innode_2] 0
interdiction[source_3,innode_4] 0
interdiction[source_2,innode_7] 0
interdiction[sink_3,innode_8] 0
WCcheckFlow[source_1,sink_3] 39
WCcheckFlow[innode_1,sink_16] 1
WCcheckFlow[innode_6,sink_13] 13
WCcheckFlow[sink_13,sink_14] 12
WCcheckFlow[sink_14,sink_10] 11
WCcheckFlow[sink_25,sink_26] 0
WCcheckFlow[sink_26,sink_9] 9
WCcheckFlow[sink_9,sink_18] 8
WCcheckFlow[sink_26,sink_4] -10
WCcheckFlow[sink_4,sink_20] -14
WCcheckFlow[sink_18,sink_6] 7
WCcheckFlow[sink_25,innode_8] -36
WCcheckFlow[sink_6,sink_7] 4
WCcheckFlow[sink_6,sink_22] 2
WCcheckFlow[sink_7,sink_24] 3
WCcheckFlow[sink_22,sink_1] 1
WCcheckFlow[sink_24,sink_21] 2
WCcheckFlow[sink_21,sink_12] 1
WCcheckFlow[sink_7,sink_5] 0
WCcheckFlow[sink_5,sink_17] -1
WCcheckFlow[sink_17,sink_4] -3
WCcheckFlow[sink_17,sink_8] 1
WCcheckFlow[sink_3,sink_23] 1
WCcheckFlow[sink_8,sink_20] 0
WCcheckFlow[sink_25,sink_20] 15
WCcheckFlow[sink_25,sink_15] 6
WCcheckFlow[sink_15,sink_29] 5
WCcheckFlow[sink_29,sink_28] 1
WCcheckFlow[sink_29,sink_2] 1
WCcheckFlow[sink_2,sink_15] 0
WCcheckFlow[sink_29,innode_7] 2
WCcheckFlow[innode_4,sink_19] -4
WCcheckFlow[sink_19,innode_3] -5
WCcheckFlow[innode_4,innode_5] 2
WCcheckFlow[sink_27,innode_5] -1
WCcheckFlow[sink_27,sink_19] 0
WCcheckFlow[sink_10,sink_11] 3
WCcheckFlow[sink_10,innode_2] 1
WCcheckFlow[sink_10,innode_3] 6
WCcheckFlow[innode_6,sink_25] -14
WCcheckFlow[sink_11,innode_1] 2
WCcheckFlow[sink_19,innode_2] 0
WCcheckFlow[source_3,innode_4] -1
WCcheckFlow[source_2,innode_7] -1
WCcheckFlow[sink_3,innode_8] 37
